p cnf 20 8
a 1 0
e 2 0
a 3 4 5 0
e 6 0
a 7 0
e 8 0
a 9 0
e 10 0
a 11 0
e 12 0
a 13 0
e 14 15 16 17 0
a 18 0
e 19 0
a 20 0
9 -20 -3 -13 -16 0
1 20 18 3 -8 0
-20 -9 14 1 0
13 14 12 -9 -10 0
-12 -6 19 0
-4 6 -12 5 0
20 17 15 -5 0
11 -5 0
